SCIP Status        : solving was interrupted [time limit reached]
Total Time         :    3600.02
  solving          :    3600.00
  presolving       :       0.01 (included in solving)
  reading          :       0.02
  copying          :      12.96 (61 #copies) (minimal 0.00, maximal 5.15, average 0.21)
Original Problem   :
  Problem name     : transswitch0009r
  Variables        : 70 (0 binary, 9 integer, 0 implicit integer, 61 continuous)
  Constraints      : 104 initial, 104 maximal
  Objective        : minimize, 1 non-zeros (abs.min = 1, abs.max = 1)
Presolved Problem  :
  Problem name     : t_transswitch0009r
  Variables        : 222 (6 binary, 0 integer, 0 implicit integer, 216 continuous)
  Constraints      : 70 initial, 78 maximal
  Objective        : minimize, 1 non-zeros (abs.min = 1, abs.max = 1)
  Nonzeros         : 272 constraint, 8 clique table
Presolvers         :   ExecTime  SetupTime  Calls  FixedVars   AggrVars   ChgTypes  ChgBounds   AddHoles    DelCons    AddCons   ChgSides   ChgCoefs
  boundshift       :       0.00       0.00      0          0          0          0          0          0          0          0          0          0
  convertinttobin  :       0.00       0.00      0          0          0          0          0          0          0          0          0          0
  domcol           :       0.00       0.00      2          0          0          0          0          0          0          0          0          0
  dualagg          :       0.00       0.00      0          0          0          0          0          0          0          0          0          0
  dualcomp         :       0.00       0.00      2          0          0          0          0          0          0          0          0          0
  dualinfer        :       0.00       0.00      0          0          0          0          0          0          0          0          0          0
  dualsparsify     :       0.00       0.00      1          0          0          0          0          0          0          0          0          0
  gateextraction   :       0.00       0.00      0          0          0          0          0          0          0          0          0          0
  implics          :       0.00       0.00      2          0          0          0          0          0          0          0          0          0
  inttobinary      :       0.00       0.00      0          0          0          0          0          0          0          0          0          0
  qpkktref         :       0.00       0.00      0          0          0          0          0          0          0          0          0          0
  redvub           :       0.00       0.00      0          0          0          0          0          0          0          0          0          0
  sparsify         :       0.00       0.00      1          0          0          0          0          0          0          0          0          0
  stuffing         :       0.00       0.00      0          0          0          0          0          0          0          0          0          0
  trivial          :       0.00       0.00      4          1          0          0          0          0          0          0          0          0
  tworowbnd        :       0.00       0.00      0          0          0          0          0          0          0          0          0          0
  dualfix          :       0.00       0.00      4          0          0          0          0          0          0          0          0          0
  genvbounds       :       0.00       0.00      0          0          0          0          0          0          0          0          0          0
  probing          :       0.00       0.00      2          2          0          0          0          0          0          0          0          0
  pseudoobj        :       0.00       0.00      0          0          0          0          0          0          0          0          0          0
  symmetry         :       0.00       0.00      1          0          0          0          0          0          0          0          0          0
  vbounds          :       0.00       0.00      1          0          0          0          0          0          0          0          0          0
  linear           :       0.00       0.00      6          1         12          0         26          0         25          0          0          0
  nonlinear        :       0.01       0.00      8          0          0          0         98          0          0          0          0          0
  benders          :       0.00       0.00      0          0          0          0          0          0          0          0          0          0
  components       :       0.00       0.00      1          0          0          0          0          0          0          0          0          0
  root node        :          -          -      -          0          -          -        178          -          -          -          -          -
Constraints        :     Number  MaxNumber  #Separate #Propagate    #EnfoLP    #EnfoRelax  #EnfoPS    #Check   #ResProp    Cutoffs    DomReds       Cuts    Applied      Conss   Children
  benderslp        :          0          0          0          0     906472          0          0     305818          0          0          0          0          0          0          0
  integral         :          0          0          0          0     906472          0          0     305818          0          0         12          0          0          0         48
  linear           :          6+        18         39    1197690          0          0          0     305813          0         66     533473          0          0          0          0
  nonlinear        :         64         64    2324002    1197624     906444          0          0     305810          0       4314    9818066   14185953   10625704          0     662646
  benders          :          0          0          0          0          0          0          0          2          0          0          0          0          0          0          0
  countsols        :          0          0          0          0          0          0          0          2          0          0          0          0          0          0          0
  components       :          0          0          0          0          0          0          0          0          0          0          0          0          0          0          0
Constraint Timings :  TotalTime  SetupTime   Separate  Propagate     EnfoLP     EnfoPS     EnfoRelax   Check    ResProp    SB-Prop
  benderslp        :       0.25       0.00       0.00       0.00       0.24       0.00       0.00       0.01       0.00       0.00
  integral         :       0.30       0.00       0.00       0.00       0.28       0.00       0.00       0.02       0.00       0.00
  linear           :       3.67       0.00       0.00       3.61       0.00       0.00       0.00       0.06       0.00       0.00
  nonlinear        :    1014.61       0.00     699.46     122.13     187.42       0.00       0.00       5.59       0.00       0.00
  benders          :       0.00       0.00       0.00       0.00       0.00       0.00       0.00       0.00       0.00       0.00
  countsols        :       0.00       0.00       0.00       0.00       0.00       0.00       0.00       0.00       0.00       0.00
  components       :       0.14       0.00       0.00       0.14       0.00       0.00       0.00       0.00       0.00       0.00
Propagators        : #Propagate   #ResProp    Cutoffs    DomReds
  dualfix          :          3          0          0          0
  genvbounds       :          0          0          0          0
  nlobbt           :          0          0          0          0
  obbt             :          3          0          0          0
  probing          :          0          0          0          0
  pseudoobj        :    2103706          0          0         60
  redcost          :     420424          0          0          0
  rootredcost      :          1          0          0          2
  symmetry         :          0          0          0          0
  vbounds          :      65559          0          0          0
Propagator Timings :  TotalTime  SetupTime   Presolve  Propagate    ResProp    SB-Prop
  dualfix          :       0.06       0.00       0.00       0.06       0.00       0.00
  genvbounds       :       0.77       0.00       0.00       0.77       0.00       0.00
  nlobbt           :       0.00       0.00       0.00       0.00       0.00       0.00
  obbt             :       0.06       0.00       0.00       0.06       0.00       0.00
  probing          :       0.00       0.00       0.00       0.00       0.00       0.00
  pseudoobj        :       1.96       0.00       0.00       1.96       0.00       0.00
  redcost          :       1.77       0.00       0.00       1.77       0.00       0.00
  rootredcost      :       0.49       0.00       0.00       0.49       0.00       0.00
  symmetry         :       0.19       0.00       0.00       0.19       0.00       0.00
  vbounds          :       0.50       0.00       0.00       0.50       0.00       0.00
Conflict Analysis  :       Time      Calls    Success    DomReds  Conflicts   Literals    Reconvs ReconvLits   Dualrays   Nonzeros   LP Iters   (pool size: [--,--])
  propagation      :       0.00          0          0          -          0        0.0          0        0.0          -          -          -
  infeasible LP    :       2.49      14328       2516          -          0        0.0          0        0.0       2514        8.2          0
  bound exceed. LP :       6.84     117486         53          -          0        0.0          0        0.0         53       19.7          0
  strong branching :       0.00          0          0          -          0        0.0          0        0.0          -          -          0
  pseudo solution  :       0.00          0          0          -          0        0.0          0        0.0          -          -          -
  applied globally :       0.00          -          -          2          0        0.0          -          -         12          -          -
  applied locally  :          -          -          -          0          0        0.0          -          -       2555          -          -
Separators         :   ExecTime  SetupTime      Calls  RootCalls    Cutoffs    DomReds  FoundCuts ViaPoolAdd  DirectAdd    Applied ViaPoolApp  DirectApp      Conss
  cut pool         :       0.09          -     194246         68          -          -        291        161          -          -          -          -          -    (maximal pool size:        291)
  aggregation      :       0.30       0.00         38         38          0          0        236        130          0         40         40          0          0
  > cmir           :          -          -          -          -          -          -          -        118          0         33         33          0          -
  > flowcover      :          -          -          -          -          -          -          -         12          0          7          7          0          -
  > knapsackcover  :          -          -          -          -          -          -          -          0          0          0          0          0          -
  cgmip            :       0.00       0.00          0          0          0          0          0          0          0          0          0          0          0
  clique           :       0.00       0.00         38         38          0          0          0          0          0          0          0          0          0
  closecuts        :       0.00       0.00          0          0          0          0          0          0          0          0          0          0          0
  convexproj       :       0.00       0.00          0          0          0          0          0          0          0          0          0          0          0
  disjunctive      :       0.00       0.00          0          0          0          0          0          0          0          0          0          0          0
  eccuts           :       0.00       0.00          0          0          0          0          0          0          0          0          0          0          0
  gauge            :       0.00       0.00          0          0          0          0          0          0          0          0          0          0          0
  gomory           :       0.00       0.00         10         10          0          0         31         13          0          8          8          0          0
  > gomorymi       :          -          -          -          -          -          -          -         13          0          8          8          0          -
  > strongcg       :          -          -          -          -          -          -          -          0          0          0          0          0          -
  impliedbounds    :       0.02       0.00         38         38          0          0         21         16          0          7          7          0          0
  interminor       :       0.00       0.00          0          0          0          0          0          0          0          0          0          0          0
  intobj           :       0.00       0.00          0          0          0          0          0          0          0          0          0          0          0
  mcf              :       0.00       0.00          1          1          0          0          0          0          0          0          0          0          0
  minor            :       1.04       0.00       3269         39          0          0      20045          0      20045      11064          0      11064          0
  mixing           :       0.14       0.00       3618         39          0          0          3          2          0          1          1          0          0
  oddcycle         :       0.00       0.00          0          0          0          0          0          0          0          0          0          0          0
  rapidlearning    :       0.08       0.00          0          0          0          0          0          0          0          0          0          0          0
  rlt              :       0.00       0.00         10         10          0          0          0          0          0          0          0          0          0
  zerohalf         :       0.01       0.00         20         20          0          0          0          0          0          0          0          0          0
Cutselectors       :   ExecTime  SetupTime      Calls  RootCalls   Selected     Forced   Filtered  RootSelec   RootForc   RootFilt 
  hybrid           :       4.41       0.00    2071877         39    9473804          0    2925447        590          0        396
Pricers            :   ExecTime  SetupTime      Calls       Vars
  problem variables:       0.00          -          0          0
Branching Rules    :   ExecTime  SetupTime   BranchLP  BranchExt   BranchPS    Cutoffs    DomReds       Cuts      Conss   Children
  allfullstrong    :       0.00       0.00          0          0          0          0          0          0          0          0
  cloud            :       0.00       0.00          0          0          0          0          0          0          0          0
  distribution     :       0.00       0.00          0          0          0          0          0          0          0          0
  fullstrong       :       0.00       0.00          0          0          0          0          0          0          0          0
  inference        :       0.00       0.00          0          0          0          0          0          0          0          0
  leastinf         :       0.00       0.00          0          0          0          0          0          0          0          0
  lookahead        :       0.00       0.00          0          0          0          0          0          0          0          0
  mostinf          :       0.00       0.00          0          0          0          0          0          0          0          0
  multaggr         :       0.00       0.00          0          0          0          0          0          0          0          0
  nodereopt        :       0.00       0.00          0          0          0          0          0          0          0          0
  pscost           :       0.00       0.00          0          0          0          0          0          0          0          0
  random           :       0.00       0.00          0          0          0          0          0          0          0          0
  relpscost        :       0.09       0.00         28          0          0          0         12          0          0         48
  vanillafullstrong:       0.00       0.00          0          0          0          0          0          0          0          0
Primal Heuristics  :   ExecTime  SetupTime      Calls      Found       Best
  LP solutions     :       0.00          -          -          0          0
  relax solutions  :       0.00          -          -          0          0
  pseudo solutions :       0.00          -          -          0          0
  strong branching :       0.00          -          -          0          0
  actconsdiving    :       0.00       0.00          0          0          0
  adaptivediving   :       3.51       0.00      27050          0          0
  alns             :       4.24       0.00         24          0          0
  bound            :       0.00       0.00          0          0          0
  clique           :       0.02       0.00          1          0          0
  coefdiving       :       0.00       0.00          0          0          0
  completesol      :       0.00       0.00          0          0          0
  conflictdiving   :       1.95       0.00      21423          0          0
  crossover        :       0.14       0.00          0          0          0
  dins             :       0.00       0.00          0          0          0
  distributiondivin:       1.52       0.00          0          0          0
  dps              :       0.00       0.00          0          0          0
  dualval          :       0.00       0.00          0          0          0
  farkasdiving     :       0.02       0.00          0          0          0
  feaspump         :       0.02       0.00          1          0          0
  fixandinfer      :       0.00       0.00          0          0          0
  fracdiving       :       1.27       0.00      24229          0          0
  gins             :       0.51       0.00          0          0          0
  guideddiving     :       2.05       0.00      26387          0          0
  indicator        :       0.47       0.00          0          0          0
  indicatordiving  :       0.00       0.00          0          0          0
  intdiving        :       0.00       0.00          0          0          0
  intshifting      :       0.01       0.00          1          0          0
  linesearchdiving :       1.70       0.00      27530          0          0
  localbranching   :       0.00       0.00          0          0          0
  locks            :       0.00       0.00          1          0          0
  lpface           :       0.19       0.00          0          0          0
  mpec             :       0.95       0.00          1          0          0
  multistart       :       0.00       0.00          0          0          0
  mutation         :       0.00       0.00          0          0          0
  nlpdiving        :       0.50       0.00         10          0          0
  objpscostdiving  :       0.02       0.00          0          0          0
  octane           :       0.00       0.00          0          0          0
  ofins            :       0.10       0.00          0          0          0
  oneopt           :       0.71       0.00          1          0          0
  padm             :       0.00       0.00          0          0          0
  proximity        :       0.00       0.00          0          0          0
  pscostdiving     :       0.04       0.00          1          0          0
  randrounding     :       0.05       0.00         40          0          0
  rens             :       0.00       0.00          0          0          0
  reoptsols        :       0.00       0.00          0          0          0
  repair           :       0.00       0.00          0          0          0
  rins             :      39.83       0.00         37          0          0
  rootsoldiving    :       0.02       0.00          0          0          0
  rounding         :       0.68       0.00        133          0          0
  shiftandpropagate:       0.00       0.00          1          0          0
  shifting         :       0.06       0.00         40          0          0
  simplerounding   :       0.53       0.00          0          0          0
  subnlp           :      48.39       0.00         86          1          1
  trivial          :       0.00       0.00          2          0          0
  trivialnegation  :       0.00       0.00          0          0          0
  trustregion      :       0.00       0.00          0          0          0
  trysol           :       0.34       0.00          0          0          0
  twoopt           :       0.00       0.00          0          0          0
  undercover       :       0.03       0.00          1          0          0
  vbounds          :       0.00       0.00          0          0          0
  veclendiving     :       1.28       0.00      26262          0          0
  zeroobj          :       0.00       0.00          0          0          0
  zirounding       :       0.13       0.00         24          0          0
  other solutions  :          -          -          -          0          -
Expressions        :   #IntEval  IntEvalTi   #RevProp  RevPropTi    DomReds    Cutoffs  #Estimate  EstimTime  Branching  #Simplify SimplifyTi Simplified
  pow              :   14581243       2.49     928874       0.42     633803          0   22837120       1.74    3064226        416       0.00          9
  prod             :   15845041       3.44    7404753       4.63    1200286        443  171827893     433.83   25818082        672       0.00        202
  sum              :    6337699       1.28    5792229       2.10    1091284        558         64       0.00          0        537       0.00        263
  val              :          0       0.00          0       0.00          0          0          0       0.00          0          0       0.00          0
  var              :   11531764       0.65          0       0.00          0          0          0       0.00          0       1738       0.00         52
  varidx           :          0       0.00          0       0.00          0          0          0       0.00          0          0       0.00          0
Nlhdlrs            :    Detects  DetectAll DetectTime   #IntEval  IntEvalTi   #RevProp  RevPropTi    DomReds    Cutoffs   #Enforce   EnfoTime       Cuts  Branching
  soc              :          0          0       0.00          0       0.00          0       0.00          0          0          0       0.00          0          0
  convex           :          0          0       0.00          0       0.00          0       0.00          0          0          0       0.00          0          0
  concave          :          0          0       0.00          0       0.00          0       0.00          0          0          0       0.00          0          0
  quotient         :          0          0       0.00          0       0.00          0       0.00          0          0          0       0.00          0          0
  quadratic        :         35        314       0.00   15473181      19.19   10893298      26.16    1490275        255          0       0.00          0          0
  default          :        235       1579       0.00   36762834       9.40   14126077      18.74    2925373       2157  194665002     590.48   14185953          0
  bilinear         :         10         10       0.00    2191109       0.14    2975176       0.16          0          0   45135813       3.37          0          0
  perspective      :          0          0       0.00          0       0.00          0       0.00          0          0          0       0.00          0          0
LP                 :       Time      Calls Iterations  Iter/call   Iter/sec  Time-0-It Calls-0-It    ItLimit
  primal LP        :     169.03     329768          0       0.00       0.00     169.00     329768
  dual LP          :    1412.60    3026240   15035288       5.28   10643.69     111.98     180976
  lex dual LP      :       0.00          0          0       0.00          -
  barrier LP       :       0.00          0          0       0.00          -       0.00          0
  resolve instable :       0.00          0          0       0.00          -
  diving/probing LP:       0.05         52       1233      23.71   24006.07
  strong branching :       0.04         27       1307      48.41   36023.37          -          -          2
    (at root node) :          -          5        238      47.60          -
  conflict analysis:       0.00          0          0       0.00          -
NLP relaxation     :
  solve time       :       0.43 (10 calls)
  convexity        :  nonconvex (6 linear rows, 19 convex ineq., 0 nonconvex ineq., 45 nonlinear eq. or two-sided ineq.)
NLP Solvers        :  #Problems  ProblemTi    #Solves  SolveTime      #Iter  Time/Iter      #Okay #TimeLimit #IterLimit #LObjLimit #Interrupt  #NumError #EvalError  #OutOfMem #LicenseEr #OtherTerm   #GlobOpt    #LocOpt  #Feasible #LocInfeas #GlobInfea #Unbounded   #Unknown
  ipopt            :         88       7.42         97      17.46       3521       0.00         86          0         11          0          0          0          0          0          0          0          0          1          0         75          0          0         21
B&B Tree           :
  number of runs   :          1
  nodes            :     471854 (331347 internal, 140507 leaves)
  feasible leaves  :          0
  infeas. leaves   :      18671
  objective leaves :     121835
  nodes (total)    :     471854 (331347 internal, 140507 leaves)
  nodes left       :     190842
  max depth        :         37
  max depth (total):         37
  backtracks       :     125906 (26.7%)
  early backtracks :          0 (0.0%)
  nodes exc. ref.  :          0 (0.0%)
  delayed cutoffs  :          0
  repropagations   :         57 (0 domain reductions, 0 cutoffs)
  avg switch length:      12.41
  switching time   :     360.97
Root Node          :
  First LP value   : +1.76909759287295e+03
  First LP Iters   :        103 (55705.79 Iter/sec)
  First LP Time    :       0.00
  Final Dual Bound : +2.18199046359975e+03
  Final Root Iters :        821
  Root LP Estimate : +3.07885044666979e+03
Solution           :
  Solutions found  :          1 (1 improvements)
  First Solution   : +5.29668620220481e+03   (in run 1, after 1 nodes, 0.18 seconds, depth 0, found by <subnlp>)
  Gap First Sol.   :     199.40 %
  Gap Last Sol.    :     199.40 %
  Primal Bound     : +5.29668620220481e+03   (in run 1, after 1 nodes, 0.18 seconds, depth 0, found by <subnlp>)
  Dual Bound       : +5.12271838118301e+03
  Gap              :       3.40 %
Integrals          :      Total       Avg%
  primal-dual      :   33519.64       9.31
  primal-ref       :          -          - (not evaluated)
  dual-ref         :          -          - (not evaluated)
